
Gurobi 13.0.2 (win64) logging started Thu Jul 23 12:24:05 2026

Set parameter LogFile to value "E:\codes\ExactEBRP\results\gf_gurobi_performance_recovery_round29\development\high_imbalance_seed3202__c3_replica__60s\external\native_logs\R.1.0.0.0.0.1.1.1.0.0_lp.gurobi.log"
Gurobi Optimizer version 13.0.2 build v13.0.2rc1 (win64 - Windows 10.0 (19045.2))

CPU model: 12th Gen Intel(R) Core(TM) i7-12700KF, instruction set [SSE2|AVX|AVX2]
Thread count: 12 physical cores, 20 logical processors, using up to 1 threads

Non-default parameters:
TimeLimit  4.9883195000000029e+00
MIPGap  0
MIPGapAbs  0
LogToConsole  0
Threads  1

Optimize a model with 11895 rows, 3372 columns and 67322 nonzeros (Min)
Model fingerprint: 0x592878e7
Model has 21 linear objective coefficients
Coefficient statistics:
  Matrix range     [1e-02, 2e+04]
  Objective range  [1e-02, 1e+00]
  Bounds range     [5e-01, 2e+03]
  RHS range        [5e-01, 5e+04]

Presolve removed 1962 rows and 108 columns
Presolve time: 0.03s
Presolved: 9933 rows, 3265 columns, 51417 nonzeros

Iteration    Objective       Primal Inf.    Dual Inf.      Time
       0    1.0901913e+00   8.433590e+02   0.000000e+00      0s
    3934    1.6071899e+00   0.000000e+00   0.000000e+00      0s

Solved in 3934 iterations and 0.26 seconds (0.75 work units)
Optimal objective  1.607189929e+00

User-callback calls 4080, time in user-callback 0.00 sec
